Test: fpga11_12_uns_rcr.cnf
Options: 
WARNING: for repeatability, setting FPU to use double precision
============================[ Problem Statistics ]=============================
|                                                                             |
|  Number of symmetries:           42                                         |
|  Number of invertingSyms:         0                                         |
|  Number of variables:           264                                         |
|  Number of clauses:            1476                                         |
|  Parse time:                   0.00 s                                       |
|                                                                             |
============================[ Search Statistics ]==============================
| Conflicts |          ORIGINAL         |          LEARNT          | Progress |
|           |    Vars  Clauses Literals |    Limit  Clauses Lit/Cl |          |
===============================================================================
|       100 |     264     1476     3168 |      541      118     50 |  0.001 % |
|       250 |     264     1476     3168 |      595      356     52 |  0.001 % |
|       475 |     264     1476     3168 |      654      379     46 |  0.001 % |
|       812 |     264     1476     3168 |      720      466     39 |  0.001 % |
|      1318 |     264     1476     3168 |      792      434     37 |  0.001 % |
|      2077 |     264     1476     3168 |      871      765     34 |  0.001 % |
|      3216 |     264     1476     3168 |      958      748     40 |  0.001 % |
|      4924 |     264     1476     3168 |     1054     1021     40 |  0.001 % |
|      7486 |     264     1476     3168 |     1160      865     40 |  0.001 % |
===============================================================================
restarts              : 46
conflicts             : 10911          (47027 /sec)
symconflicts          : 1259           (5426 /sec)
decisions             : 16807          (0.00 % random) (72440 /sec)
propagations          : 209624         (903497 /sec)
sympropagations       : 8366           (36058 /sec)
conflict literals     : 491801         (7.66 % deleted)
literals     : 491801         (7.66 % deleted)

HEURISTIC USAGES
random                : 0           
activity w/ lookahead : 0           
activity no lookahead : 0           
original sp           : 16807       
sym count             : 0           

Memory used           : 6.00 MB
CPU time              : 0.232014 s

UNSATISFIABLE
